peakDumbCharging = 22200; 
Machine = anon_enum(16); 
machineSpeed = [3700,3700,3700,3700,3700,3700,3700,3700,3700,3700,3700,3700,3700,3700,3700,3700]; 
machineLoad = [3700,3700,3700,3700,3700,3700,3700,3700,3700,3700,3700,3700,3700,3700,3700,3700]; 
Car = anon_enum(27); 
demandCar = [9200,7280,9760,2040,17400,9840,21720,5720,20680,7280,9560,15600,8320,4520,4200,3680,3000,13520,22280,9080,9840,2040,8600,6760,2640,33520,31800]; 
arrivalCar = [77,74,71,69,68,66,65,64,63,61,60,59,59,59,59,55,54,52,49,48,47,45,44,35,32,29,29]; 
departureCar = [80,78,74,72,74,70,74,68,70,66,67,67,65,61,61,58,56,58,56,55,51,47,49,37,34,57,47]; 
